Optimal - objective value 3187.00000000
      6 x_0_7                  1                       0
     12 x_1_6                  1                       0
     14 x_2_0                  1                      45
     25 x_3_5                  1                      31
     30 x_4_2                  1                       0
     36 x_5_1                  1                       0
     46 x_6_4                  1                       0
     52 x_7_3                  1                       0
     56 u_1                    4                       0
     57 u_2                    7                       0
     58 u_3                    2                       0
     59 u_4                    6                       0
     60 u_5                    3                       0
     61 u_6                    5                       0
     62 u_7                    1                       0
